p cnf 963 2472
51 -696 -1 0
-51 696 0
-51 1 0
52 -51 -3 0
-52 51 0
-52 3 0
53 -5 -4 0
-53 5 0
-53 4 0
54 -53 -697 0
-54 53 0
-54 697 0
55 -698 -699 0
-55 698 0
-55 699 0
56 -7 -2 0
-56 7 0
-56 2 0
57 -56 -700 0
-57 56 0
-57 700 0
58 -701 -55 0
-58 701 0
-58 55 0
59 -9 -702 0
-59 9 0
-59 702 0
60 -59 -10 0
-60 59 0
-60 10 0
61 -703 -58 0
-61 703 0
-61 58 0
62 -11 -696 0
-62 11 0
-62 696 0
63 -62 -6 0
-63 62 0
-63 6 0
64 -704 -61 0
-64 704 0
-64 61 0
65 -13 -12 0
-65 13 0
-65 12 0
66 -65 -14 0
-66 65 0
-66 14 0
67 -705 -64 0
-67 705 0
-67 64 0
68 -706 -707 0
-68 706 0
-68 707 0
69 -68 -16 0
-69 68 0
-69 16 0
70 -708 -67 0
-70 708 0
-70 67 0
71 -709 -1 0
-71 709 0
-71 1 0
72 -71 -17 0
-72 71 0
-72 17 0
73 -710 -70 0
-73 710 0
-73 70 0
74 -15 -4 0
-74 15 0
-74 4 0
75 -74 -711 0
-75 74 0
-75 711 0
76 -712 -73 0
-76 712 0
-76 73 0
77 -19 -713 0
-77 19 0
-77 713 0
78 -77 -714 0
-78 77 0
-78 714 0
79 -715 -76 0
-79 715 0
-79 76 0
80 -14 -716 0
-80 14 0
-80 716 0
81 -80 -20 0
-81 80 0
-81 20 0
82 -717 -79 0
-82 717 0
-82 79 0
83 -21 -718 0
-83 21 0
-83 718 0
84 -83 -22 0
-84 83 0
-84 22 0
85 -719 -82 0
-85 719 0
-85 82 0
86 -23 -720 0
-86 23 0
-86 720 0
87 -86 -721 0
-87 86 0
-87 721 0
88 -722 -85 0
-88 722 0
-88 85 0
89 -723 -702 0
-89 723 0
-89 702 0
90 -89 -724 0
-90 89 0
-90 724 0
91 -725 -88 0
-91 725 0
-91 88 0
92 -27 -726 0
-92 27 0
-92 726 0
93 -92 -5 0
-93 92 0
-93 5 0
94 -727 -91 0
-94 727 0
-94 91 0
95 -728 -721 0
-95 728 0
-95 721 0
96 -95 -729 0
-96 95 0
-96 729 0
97 -730 -94 0
-97 730 0
-97 94 0
98 -731 -15 0
-98 731 0
-98 15 0
99 -98 -26 0
-99 98 0
-99 26 0
100 -732 -97 0
-100 732 0
-100 97 0
101 -29 -15 0
-101 29 0
-101 15 0
102 -101 -4 0
-102 101 0
-102 4 0
103 -733 -100 0
-103 733 0
-103 100 0
104 -30 -24 0
-104 30 0
-104 24 0
105 -104 -723 0
-105 104 0
-105 723 0
106 -734 -103 0
-106 734 0
-106 103 0
107 -735 -31 0
-107 735 0
-107 31 0
108 -107 -24 0
-108 107 0
-108 24 0
109 -736 -106 0
-109 736 0
-109 106 0
110 -33 -711 0
-110 33 0
-110 711 0
111 -110 -3 0
-111 110 0
-111 3 0
112 -737 -109 0
-112 737 0
-112 109 0
113 -738 -739 0
-113 738 0
-113 739 0
114 -113 -723 0
-114 113 0
-114 723 0
115 -740 -112 0
-115 740 0
-115 112 0
116 -741 -716 0
-116 741 0
-116 716 0
117 -116 -731 0
-117 116 0
-117 731 0
118 -742 -115 0
-118 742 0
-118 115 0
119 -36 -743 0
-119 36 0
-119 743 0
120 -119 -37 0
-120 119 0
-120 37 0
121 -744 -118 0
-121 744 0
-121 118 0
122 -745 -728 0
-122 745 0
-122 728 0
123 -122 -38 0
-123 122 0
-123 38 0
124 -746 -121 0
-124 746 0
-124 121 0
125 -17 -709 0
-125 17 0
-125 709 0
126 -125 -747 0
-126 125 0
-126 747 0
127 -748 -124 0
-127 748 0
-127 124 0
128 -53 -743 0
-128 53 0
-128 743 0
129 -749 -127 0
-129 749 0
-129 127 0
130 -34 -4 0
-130 34 0
-130 4 0
131 -130 -750 0
-131 130 0
-131 750 0
132 -751 -129 0
-132 751 0
-132 129 0
133 -752 -696 0
-133 752 0
-133 696 0
134 -133 -723 0
-134 133 0
-134 723 0
135 -753 -132 0
-135 753 0
-135 132 0
136 -41 -40 0
-136 41 0
-136 40 0
137 -136 -697 0
-137 136 0
-137 697 0
138 -754 -135 0
-138 754 0
-138 135 0
139 -42 -34 0
-139 42 0
-139 34 0
140 -139 -755 0
-140 139 0
-140 755 0
141 -756 -138 0
-141 756 0
-141 138 0
142 -42 -747 0
-142 42 0
-142 747 0
143 -142 -38 0
-143 142 0
-143 38 0
144 -757 -141 0
-144 757 0
-144 141 0
145 -28 -1 0
-145 28 0
-145 1 0
146 -145 -20 0
-146 145 0
-146 20 0
147 -758 -144 0
-147 758 0
-147 144 0
148 -752 -35 0
-148 752 0
-148 35 0
149 -148 -10 0
-149 148 0
-149 10 0
150 -759 -147 0
-150 759 0
-150 147 0
151 -760 -5 0
-151 760 0
-151 5 0
152 -151 -43 0
-152 151 0
-152 43 0
153 -761 -150 0
-153 761 0
-153 150 0
154 -739 -27 0
-154 739 0
-154 27 0
155 -154 -43 0
-155 154 0
-155 43 0
156 -762 -153 0
-156 762 0
-156 153 0
157 -763 -752 0
-157 763 0
-157 752 0
158 -157 -728 0
-158 157 0
-158 728 0
159 -764 -156 0
-159 764 0
-159 156 0
160 -765 -30 0
-160 765 0
-160 30 0
161 -160 -13 0
-161 160 0
-161 13 0
162 -766 -159 0
-162 766 0
-162 159 0
163 -755 -21 0
-163 755 0
-163 21 0
164 -163 -41 0
-164 163 0
-164 41 0
165 -767 -162 0
-165 767 0
-165 162 0
166 -31 -728 0
-166 31 0
-166 728 0
167 -166 -709 0
-167 166 0
-167 709 0
168 -768 -165 0
-168 768 0
-168 165 0
169 -726 -10 0
-169 726 0
-169 10 0
170 -169 -6 0
-170 169 0
-170 6 0
171 -769 -168 0
-171 769 0
-171 168 0
172 -770 -713 0
-172 770 0
-172 713 0
173 -172 -771 0
-173 172 0
-173 771 0
174 -772 -171 0
-174 772 0
-174 171 0
175 -728 -5 0
-175 728 0
-175 5 0
176 -175 -714 0
-176 175 0
-176 714 0
177 -773 -174 0
-177 773 0
-177 174 0
178 -739 -771 0
-178 739 0
-178 771 0
179 -178 -774 0
-179 178 0
-179 774 0
180 -775 -177 0
-180 775 0
-180 177 0
181 -40 -18 0
-181 40 0
-181 18 0
182 -181 -25 0
-182 181 0
-182 25 0
183 -776 -180 0
-183 776 0
-183 180 0
184 -38 -707 0
-184 38 0
-184 707 0
185 -184 -700 0
-185 184 0
-185 700 0
186 -777 -183 0
-186 777 0
-186 183 0
187 -18 -2 0
-187 18 0
-187 2 0
188 -187 -46 0
-188 187 0
-188 46 0
189 -778 -186 0
-189 778 0
-189 186 0
190 -2 -1 0
-190 2 0
-190 1 0
191 -190 -8 0
-191 190 0
-191 8 0
192 -779 -189 0
-192 779 0
-192 189 0
193 -34 -7 0
-193 34 0
-193 7 0
194 -193 -724 0
-194 193 0
-194 724 0
195 -780 -192 0
-195 780 0
-195 192 0
196 -781 -707 0
-196 781 0
-196 707 0
197 -196 -41 0
-197 196 0
-197 41 0
198 -782 -195 0
-198 782 0
-198 195 0
199 -47 -735 0
-199 47 0
-199 735 0
200 -199 -700 0
-200 199 0
-200 700 0
201 -783 -198 0
-201 783 0
-201 198 0
202 -784 -739 0
-202 784 0
-202 739 0
203 -202 -26 0
-203 202 0
-203 26 0
204 -785 -201 0
-204 785 0
-204 201 0
205 -27 -18 0
-205 27 0
-205 18 0
206 -205 -707 0
-206 205 0
-206 707 0
207 -786 -204 0
-207 786 0
-207 204 0
208 -738 -4 0
-208 738 0
-208 4 0
209 -208 -781 0
-209 208 0
-209 781 0
210 -787 -207 0
-210 787 0
-210 207 0
211 -707 -5 0
-211 707 0
-211 5 0
212 -211 -26 0
-212 211 0
-212 26 0
213 -788 -210 0
-213 788 0
-213 210 0
214 -789 -15 0
-214 789 0
-214 15 0
215 -214 -721 0
-215 214 0
-215 721 0
216 -790 -213 0
-216 790 0
-216 213 0
217 -791 -18 0
-217 791 0
-217 18 0
218 -217 -41 0
-218 217 0
-218 41 0
219 -792 -216 0
-219 792 0
-219 216 0
220 -702 -1 0
-220 702 0
-220 1 0
221 -220 -793 0
-221 220 0
-221 793 0
222 -794 -219 0
-222 794 0
-222 219 0
223 -793 -716 0
-223 793 0
-223 716 0
224 -223 -697 0
-224 223 0
-224 697 0
225 -795 -222 0
-225 795 0
-225 222 0
226 -16 -9 0
-226 16 0
-226 9 0
227 -226 -41 0
-227 226 0
-227 41 0
228 -796 -225 0
-228 796 0
-228 225 0
229 -765 -39 0
-229 765 0
-229 39 0
230 -229 -729 0
-230 229 0
-230 729 0
231 -797 -228 0
-231 797 0
-231 228 0
232 -745 -18 0
-232 745 0
-232 18 0
233 -232 -781 0
-233 232 0
-233 781 0
234 -798 -231 0
-234 798 0
-234 231 0
235 -130 -43 0
-235 130 0
-235 43 0
236 -799 -234 0
-236 799 0
-236 234 0
237 -47 -720 0
-237 47 0
-237 720 0
238 -237 -700 0
-238 237 0
-238 700 0
239 -800 -236 0
-239 800 0
-239 236 0
240 -101 -702 0
-240 101 0
-240 702 0
241 -801 -239 0
-241 801 0
-241 239 0
242 -726 -13 0
-242 726 0
-242 13 0
243 -242 -22 0
-243 242 0
-243 22 0
244 -802 -241 0
-244 802 0
-244 241 0
245 -32 -713 0
-245 32 0
-245 713 0
246 -245 -3 0
-246 245 0
-246 3 0
247 -803 -244 0
-247 803 0
-247 244 0
248 -745 -3 0
-248 745 0
-248 3 0
249 -248 -6 0
-249 248 0
-249 6 0
250 -804 -247 0
-250 804 0
-250 247 0
251 -724 -15 0
-251 724 0
-251 15 0
252 -251 -700 0
-252 251 0
-252 700 0
253 -805 -250 0
-253 805 0
-253 250 0
254 -28 -721 0
-254 28 0
-254 721 0
255 -254 -697 0
-255 254 0
-255 697 0
256 -806 -253 0
-256 806 0
-256 253 0
257 -24 -729 0
-257 24 0
-257 729 0
258 -257 -14 0
-258 257 0
-258 14 0
259 -807 -256 0
-259 807 0
-259 256 0
260 -48 -31 0
-260 48 0
-260 31 0
261 -260 -755 0
-261 260 0
-261 755 0
262 -808 -259 0
-262 808 0
-262 259 0
263 -18 -4 0
-263 18 0
-263 4 0
264 -263 -14 0
-264 263 0
-264 14 0
265 -809 -262 0
-265 809 0
-265 262 0
266 -17 -2 0
-266 17 0
-266 2 0
267 -266 -723 0
-267 266 0
-267 723 0
268 -810 -265 0
-268 810 0
-268 265 0
269 -791 -726 0
-269 791 0
-269 726 0
270 -269 -7 0
-270 269 0
-270 7 0
271 -811 -268 0
-271 811 0
-271 268 0
272 -29 -728 0
-272 29 0
-272 728 0
273 -272 -700 0
-273 272 0
-273 700 0
274 -812 -271 0
-274 812 0
-274 271 0
275 -745 -702 0
-275 745 0
-275 702 0
276 -275 -771 0
-276 275 0
-276 771 0
277 -813 -274 0
-277 813 0
-277 274 0
278 -738 -702 0
-278 738 0
-278 702 0
279 -278 -716 0
-279 278 0
-279 716 0
280 -814 -277 0
-280 814 0
-280 277 0
281 -815 -45 0
-281 815 0
-281 45 0
282 -281 -6 0
-282 281 0
-282 6 0
283 -816 -280 0
-283 816 0
-283 280 0
284 -752 -3 0
-284 752 0
-284 3 0
285 -284 -37 0
-285 284 0
-285 37 0
286 -817 -283 0
-286 817 0
-286 283 0
287 -45 -39 0
-287 45 0
-287 39 0
288 -287 -24 0
-288 287 0
-288 24 0
289 -818 -286 0
-289 818 0
-289 286 0
290 -760 -27 0
-290 760 0
-290 27 0
291 -290 -5 0
-291 290 0
-291 5 0
292 -819 -289 0
-292 819 0
-292 289 0
293 -713 -716 0
-293 713 0
-293 716 0
294 -293 -747 0
-294 293 0
-294 747 0
295 -820 -292 0
-295 820 0
-295 292 0
296 -18 -15 0
-296 18 0
-296 15 0
297 -296 -9 0
-297 296 0
-297 9 0
298 -821 -295 0
-298 821 0
-298 295 0
299 -735 -3 0
-299 735 0
-299 3 0
300 -299 -731 0
-300 299 0
-300 731 0
301 -822 -298 0
-301 822 0
-301 298 0
302 -791 -32 0
-302 791 0
-302 32 0
303 -302 -793 0
-303 302 0
-303 793 0
304 -823 -301 0
-304 823 0
-304 301 0
305 -48 -9 0
-305 48 0
-305 9 0
306 -305 -716 0
-306 305 0
-306 716 0
307 -824 -304 0
-307 824 0
-307 304 0
308 -47 -9 0
-308 47 0
-308 9 0
309 -308 -22 0
-309 308 0
-309 22 0
310 -825 -307 0
-310 825 0
-310 307 0
311 -826 -720 0
-311 826 0
-311 720 0
312 -311 -14 0
-312 311 0
-312 14 0
313 -827 -310 0
-313 827 0
-313 310 0
314 -50 -40 0
-314 50 0
-314 40 0
315 -314 -16 0
-315 314 0
-315 16 0
316 -828 -313 0
-316 828 0
-316 313 0
317 -46 -34 0
-317 46 0
-317 34 0
318 -317 -14 0
-318 317 0
-318 14 0
319 -829 -316 0
-319 829 0
-319 316 0
320 -44 -752 0
-320 44 0
-320 752 0
321 -320 -724 0
-321 320 0
-321 724 0
322 -830 -319 0
-322 830 0
-322 319 0
323 -22 -17 0
-323 22 0
-323 17 0
324 -323 -38 0
-324 323 0
-324 38 0
325 -831 -322 0
-325 831 0
-325 322 0
326 -726 -714 0
-326 726 0
-326 714 0
327 -326 -832 0
-327 326 0
-327 832 0
328 -833 -325 0
-328 833 0
-328 325 0
329 -23 -696 0
-329 23 0
-329 696 0
330 -329 -731 0
-330 329 0
-330 731 0
331 -834 -328 0
-331 834 0
-331 328 0
332 -835 -1 0
-332 835 0
-332 1 0
333 -332 -728 0
-333 332 0
-333 728 0
334 -836 -331 0
-334 836 0
-334 331 0
335 -713 -702 0
-335 713 0
-335 702 0
336 -335 -12 0
-336 335 0
-336 12 0
337 -837 -334 0
-337 837 0
-337 334 0
338 -48 -29 0
-338 48 0
-338 29 0
339 -338 -793 0
-339 338 0
-339 793 0
340 -838 -337 0
-340 838 0
-340 337 0
341 -46 -3 0
-341 46 0
-341 3 0
342 -341 -723 0
-342 341 0
-342 723 0
343 -839 -340 0
-343 839 0
-343 340 0
344 -44 -745 0
-344 44 0
-344 745 0
345 -344 -2 0
-345 344 0
-345 2 0
346 -840 -343 0
-346 840 0
-346 343 0
347 -723 -771 0
-347 723 0
-347 771 0
348 -347 -36 0
-348 347 0
-348 36 0
349 -841 -346 0
-349 841 0
-349 346 0
350 -48 -5 0
-350 48 0
-350 5 0
351 -350 -709 0
-351 350 0
-351 709 0
352 -842 -349 0
-352 842 0
-352 349 0
353 -843 -702 0
-353 843 0
-353 702 0
354 -353 -30 0
-354 353 0
-354 30 0
355 -844 -352 0
-355 844 0
-355 352 0
356 -47 -43 0
-356 47 0
-356 43 0
357 -356 -6 0
-357 356 0
-357 6 0
358 -845 -355 0
-358 845 0
-358 355 0
359 -65 -815 0
-359 65 0
-359 815 0
360 -846 -358 0
-360 846 0
-360 358 0
361 -752 -23 0
-361 752 0
-361 23 0
362 -361 -793 0
-362 361 0
-362 793 0
363 -847 -360 0
-363 847 0
-363 360 0
364 -709 -9 0
-364 709 0
-364 9 0
365 -364 -22 0
-365 364 0
-365 22 0
366 -848 -363 0
-366 848 0
-366 363 0
367 -791 -739 0
-367 791 0
-367 739 0
368 -367 -747 0
-368 367 0
-368 747 0
369 -849 -366 0
-369 849 0
-369 366 0
370 -718 -771 0
-370 718 0
-370 771 0
371 -370 -774 0
-371 370 0
-371 774 0
372 -850 -369 0
-372 850 0
-372 369 0
373 -45 -31 0
-373 45 0
-373 31 0
374 -373 -721 0
-374 373 0
-374 721 0
375 -851 -372 0
-375 851 0
-375 372 0
376 -843 -750 0
-376 843 0
-376 750 0
377 -376 -747 0
-377 376 0
-377 747 0
378 -852 -375 0
-378 852 0
-378 375 0
379 -770 -15 0
-379 770 0
-379 15 0
380 -379 -44 0
-380 379 0
-380 44 0
381 -853 -378 0
-381 853 0
-381 378 0
382 -335 -50 0
-382 335 0
-382 50 0
383 -854 -381 0
-383 854 0
-383 381 0
384 -752 -4 0
-384 752 0
-384 4 0
385 -384 -46 0
-385 384 0
-385 46 0
386 -855 -383 0
-386 855 0
-386 383 0
387 -31 -15 0
-387 31 0
-387 15 0
388 -387 -36 0
-388 387 0
-388 36 0
389 -856 -386 0
-389 856 0
-389 386 0
390 -760 -9 0
-390 760 0
-390 9 0
391 -390 -7 0
-391 390 0
-391 7 0
392 -857 -389 0
-392 857 0
-392 389 0
393 -27 -19 0
-393 27 0
-393 19 0
394 -393 -724 0
-394 393 0
-394 724 0
395 -858 -392 0
-395 858 0
-395 392 0
396 -47 -12 0
-396 47 0
-396 12 0
397 -396 -815 0
-397 396 0
-397 815 0
398 -859 -395 0
-398 859 0
-398 395 0
399 -47 -19 0
-399 47 0
-399 19 0
400 -399 -707 0
-400 399 0
-400 707 0
401 -860 -398 0
-401 860 0
-401 398 0
402 -44 -32 0
-402 44 0
-402 32 0
403 -402 -6 0
-403 402 0
-403 6 0
404 -861 -401 0
-404 861 0
-404 401 0
405 -27 -835 0
-405 27 0
-405 835 0
406 -405 -49 0
-406 405 0
-406 49 0
407 -862 -404 0
-407 862 0
-407 404 0
408 -863 -835 0
-408 863 0
-408 835 0
409 -408 -8 0
-409 408 0
-409 8 0
410 -864 -407 0
-410 864 0
-410 407 0
411 -765 -11 0
-411 765 0
-411 11 0
412 -411 -37 0
-412 411 0
-412 37 0
413 -865 -410 0
-413 865 0
-413 410 0
414 -48 -770 0
-414 48 0
-414 770 0
415 -414 -707 0
-415 414 0
-415 707 0
416 -866 -413 0
-416 866 0
-416 413 0
417 -738 -789 0
-417 738 0
-417 789 0
418 -417 -741 0
-418 417 0
-418 741 0
419 -867 -416 0
-419 867 0
-419 416 0
420 -714 -707 0
-420 714 0
-420 707 0
421 -420 -26 0
-421 420 0
-421 26 0
422 -868 -419 0
-422 868 0
-422 419 0
423 -729 -2 0
-423 729 0
-423 2 0
424 -423 -784 0
-424 423 0
-424 784 0
425 -869 -422 0
-425 869 0
-425 422 0
426 -40 -31 0
-426 40 0
-426 31 0
427 -426 -25 0
-427 426 0
-427 25 0
428 -870 -425 0
-428 870 0
-428 425 0
429 -24 -12 0
-429 24 0
-429 12 0
430 -429 -30 0
-430 429 0
-430 30 0
431 -871 -428 0
-431 871 0
-431 428 0
432 -18 -5 0
-432 18 0
-432 5 0
433 -432 -35 0
-433 432 0
-433 35 0
434 -872 -431 0
-434 872 0
-434 431 0
435 -50 -718 0
-435 50 0
-435 718 0
436 -435 -22 0
-436 435 0
-436 22 0
437 -873 -434 0
-437 873 0
-437 434 0
438 -721 -711 0
-438 721 0
-438 711 0
439 -438 -26 0
-439 438 0
-439 26 0
440 -874 -437 0
-440 874 0
-440 437 0
441 -826 -738 0
-441 826 0
-441 738 0
442 -441 -42 0
-442 441 0
-442 42 0
443 -875 -440 0
-443 875 0
-443 440 0
444 -741 -24 0
-444 741 0
-444 24 0
445 -444 -743 0
-445 444 0
-445 743 0
446 -876 -443 0
-446 876 0
-446 443 0
447 -731 -14 0
-447 731 0
-447 14 0
448 -447 -49 0
-448 447 0
-448 49 0
449 -877 -446 0
-449 877 0
-449 446 0
450 -33 -774 0
-450 33 0
-450 774 0
451 -450 -697 0
-451 450 0
-451 697 0
452 -878 -449 0
-452 878 0
-452 449 0
453 -12 -718 0
-453 12 0
-453 718 0
454 -453 -879 0
-454 453 0
-454 879 0
455 -880 -452 0
-455 880 0
-455 452 0
456 -190 -793 0
-456 190 0
-456 793 0
457 -881 -455 0
-457 881 0
-457 455 0
458 -882 -11 0
-458 882 0
-458 11 0
459 -458 -23 0
-459 458 0
-459 23 0
460 -883 -457 0
-460 883 0
-460 457 0
461 -21 -771 0
-461 21 0
-461 771 0
462 -461 -49 0
-462 461 0
-462 49 0
463 -884 -460 0
-463 884 0
-463 460 0
464 -826 -735 0
-464 826 0
-464 735 0
465 -464 -879 0
-465 464 0
-465 879 0
466 -885 -463 0
-466 885 0
-466 463 0
467 -774 -709 0
-467 774 0
-467 709 0
468 -467 -724 0
-468 467 0
-468 724 0
469 -886 -466 0
-469 886 0
-469 466 0
470 -863 -23 0
-470 863 0
-470 23 0
471 -470 -784 0
-471 470 0
-471 784 0
472 -887 -469 0
-472 887 0
-472 469 0
473 -723 -24 0
-473 723 0
-473 24 0
474 -473 -14 0
-474 473 0
-474 14 0
475 -888 -472 0
-475 888 0
-475 472 0
476 -763 -711 0
-476 763 0
-476 711 0
477 -476 -721 0
-477 476 0
-477 721 0
478 -889 -475 0
-478 889 0
-478 475 0
479 -890 -3 0
-479 890 0
-479 3 0
480 -479 -707 0
-480 479 0
-480 707 0
481 -891 -478 0
-481 891 0
-481 478 0
482 -35 -882 0
-482 35 0
-482 882 0
483 -482 -747 0
-483 482 0
-483 747 0
484 -892 -481 0
-484 892 0
-484 481 0
485 -45 -745 0
-485 45 0
-485 745 0
486 -485 -728 0
-486 485 0
-486 728 0
487 -893 -484 0
-487 893 0
-487 484 0
488 -755 -28 0
-488 755 0
-488 28 0
489 -488 -20 0
-489 488 0
-489 20 0
490 -894 -487 0
-490 894 0
-490 487 0
491 -752 -702 0
-491 752 0
-491 702 0
492 -491 -815 0
-492 491 0
-492 815 0
493 -895 -490 0
-493 895 0
-493 490 0
494 -765 -42 0
-494 765 0
-494 42 0
495 -494 -731 0
-495 494 0
-495 731 0
496 -896 -493 0
-496 896 0
-496 493 0
497 -31 -770 0
-497 31 0
-497 770 0
498 -497 -44 0
-498 497 0
-498 44 0
499 -897 -496 0
-499 897 0
-499 496 0
500 -50 -709 0
-500 50 0
-500 709 0
501 -500 -755 0
-501 500 0
-501 755 0
502 -898 -499 0
-502 898 0
-502 499 0
503 -21 -15 0
-503 21 0
-503 15 0
504 -503 -14 0
-504 503 0
-504 14 0
505 -899 -502 0
-505 899 0
-505 502 0
506 -31 -19 0
-506 31 0
-506 19 0
507 -506 -48 0
-507 506 0
-507 48 0
508 -900 -505 0
-508 900 0
-508 505 0
509 -44 -18 0
-509 44 0
-509 18 0
510 -509 -25 0
-510 509 0
-510 25 0
511 -901 -508 0
-511 901 0
-511 508 0
512 -879 -30 0
-512 879 0
-512 30 0
513 -512 -774 0
-513 512 0
-513 774 0
514 -902 -511 0
-514 902 0
-514 511 0
515 -48 -774 0
-515 48 0
-515 774 0
516 -515 -747 0
-516 515 0
-516 747 0
517 -903 -514 0
-517 903 0
-517 514 0
518 -40 -29 0
-518 40 0
-518 29 0
519 -518 -702 0
-519 518 0
-519 702 0
520 -904 -517 0
-520 904 0
-520 517 0
521 -752 -31 0
-521 752 0
-521 31 0
522 -521 -8 0
-522 521 0
-522 8 0
523 -905 -520 0
-523 905 0
-523 520 0
524 -19 -15 0
-524 19 0
-524 15 0
525 -524 -27 0
-525 524 0
-525 27 0
526 -906 -523 0
-526 906 0
-526 523 0
527 -33 -728 0
-527 33 0
-527 728 0
528 -527 -41 0
-528 527 0
-528 41 0
529 -907 -526 0
-529 907 0
-529 526 0
530 -41 -1 0
-530 41 0
-530 1 0
531 -530 -724 0
-531 530 0
-531 724 0
532 -908 -529 0
-532 908 0
-532 529 0
533 -39 -13 0
-533 39 0
-533 13 0
534 -533 -879 0
-534 533 0
-534 879 0
535 -909 -532 0
-535 909 0
-535 532 0
536 -793 -770 0
-536 793 0
-536 770 0
537 -536 -815 0
-537 536 0
-537 815 0
538 -910 -535 0
-538 910 0
-538 535 0
539 -738 -696 0
-539 738 0
-539 696 0
540 -539 -49 0
-540 539 0
-540 49 0
541 -911 -538 0
-541 911 0
-541 538 0
542 -33 -835 0
-542 33 0
-542 835 0
543 -542 -743 0
-543 542 0
-543 743 0
544 -912 -541 0
-544 912 0
-544 541 0
545 -835 -702 0
-545 835 0
-545 702 0
546 -545 -729 0
-546 545 0
-546 729 0
547 -913 -544 0
-547 913 0
-547 544 0
548 -716 -702 0
-548 716 0
-548 702 0
549 -548 -709 0
-549 548 0
-549 709 0
550 -914 -547 0
-550 914 0
-550 547 0
551 -735 -720 0
-551 735 0
-551 720 0
552 -551 -815 0
-552 551 0
-552 815 0
553 -915 -550 0
-553 915 0
-553 550 0
554 -879 -711 0
-554 879 0
-554 711 0
555 -554 -724 0
-555 554 0
-555 724 0
556 -916 -553 0
-556 916 0
-556 553 0
557 -9 -5 0
-557 9 0
-557 5 0
558 -557 -697 0
-558 557 0
-558 697 0
559 -917 -556 0
-559 917 0
-559 556 0
560 -29 -1 0
-560 29 0
-560 1 0
561 -560 -28 0
-561 560 0
-561 28 0
562 -918 -559 0
-562 918 0
-562 559 0
563 -706 -2 0
-563 706 0
-563 2 0
564 -563 -20 0
-564 563 0
-564 20 0
565 -919 -562 0
-565 919 0
-565 562 0
566 -731 -716 0
-566 731 0
-566 716 0
567 -566 -25 0
-567 566 0
-567 25 0
568 -920 -565 0
-568 920 0
-568 565 0
569 -199 -815 0
-569 199 0
-569 815 0
570 -921 -568 0
-570 921 0
-570 568 0
571 -863 -728 0
-571 863 0
-571 728 0
572 -571 -750 0
-572 571 0
-572 750 0
573 -922 -570 0
-573 922 0
-573 570 0
574 -741 -709 0
-574 741 0
-574 709 0
575 -574 -784 0
-575 574 0
-575 784 0
576 -923 -573 0
-576 923 0
-576 573 0
577 -49 -696 0
-577 49 0
-577 696 0
578 -577 -832 0
-578 577 0
-578 832 0
579 -924 -576 0
-579 924 0
-579 576 0
580 -713 -720 0
-580 713 0
-580 720 0
581 -580 -702 0
-581 580 0
-581 702 0
582 -925 -579 0
-582 925 0
-582 579 0
583 -791 -731 0
-583 791 0
-583 731 0
584 -583 -41 0
-584 583 0
-584 41 0
585 -926 -582 0
-585 926 0
-585 582 0
586 -863 -35 0
-586 863 0
-586 35 0
587 -586 -724 0
-587 586 0
-587 724 0
588 -927 -585 0
-588 927 0
-588 585 0
589 -34 -771 0
-589 34 0
-589 771 0
590 -589 -49 0
-590 589 0
-590 49 0
591 -928 -588 0
-591 928 0
-591 588 0
592 -23 -709 0
-592 23 0
-592 709 0
593 -592 -750 0
-593 592 0
-593 750 0
594 -929 -591 0
-594 929 0
-594 591 0
595 -30 -7 0
-595 30 0
-595 7 0
596 -595 -729 0
-596 595 0
-596 729 0
597 -930 -594 0
-597 930 0
-597 594 0
598 -45 -40 0
-598 45 0
-598 40 0
599 -598 -784 0
-599 598 0
-599 784 0
600 -931 -597 0
-600 931 0
-600 597 0
601 -48 -42 0
-601 48 0
-601 42 0
602 -601 -26 0
-602 601 0
-602 26 0
603 -932 -600 0
-603 932 0
-603 600 0
604 -22 -18 0
-604 22 0
-604 18 0
605 -604 -43 0
-605 604 0
-605 43 0
606 -933 -603 0
-606 933 0
-606 603 0
607 -763 -12 0
-607 763 0
-607 12 0
608 -607 -35 0
-608 607 0
-608 35 0
609 -934 -606 0
-609 934 0
-609 606 0
610 -745 -4 0
-610 745 0
-610 4 0
611 -610 -721 0
-611 610 0
-611 721 0
612 -935 -609 0
-612 935 0
-612 609 0
613 -890 -19 0
-613 890 0
-613 19 0
614 -613 -29 0
-614 613 0
-614 29 0
615 -936 -612 0
-615 936 0
-615 612 0
616 -726 -11 0
-616 726 0
-616 11 0
617 -616 -738 0
-617 616 0
-617 738 0
618 -937 -615 0
-618 937 0
-618 615 0
619 -752 -38 0
-619 752 0
-619 38 0
620 -619 -6 0
-620 619 0
-620 6 0
621 -938 -618 0
-621 938 0
-621 618 0
622 -15 -702 0
-622 15 0
-622 702 0
623 -622 -771 0
-623 622 0
-623 771 0
624 -939 -621 0
-624 939 0
-624 621 0
625 -763 -784 0
-625 763 0
-625 784 0
626 -625 -700 0
-626 625 0
-626 700 0
627 -940 -624 0
-627 940 0
-627 624 0
628 -791 -763 0
-628 791 0
-628 763 0
629 -628 -752 0
-629 628 0
-629 752 0
630 -941 -627 0
-630 941 0
-630 627 0
631 -296 -784 0
-631 296 0
-631 784 0
632 -942 -630 0
-632 942 0
-632 630 0
633 -752 -739 0
-633 752 0
-633 739 0
634 -633 -38 0
-634 633 0
-634 38 0
635 -943 -632 0
-635 943 0
-635 632 0
636 -18 -706 0
-636 18 0
-636 706 0
637 -636 -2 0
-637 636 0
-637 2 0
638 -944 -635 0
-638 944 0
-638 635 0
639 -890 -23 0
-639 890 0
-639 23 0
640 -639 -43 0
-640 639 0
-640 43 0
641 -945 -638 0
-641 945 0
-641 638 0
642 -47 -45 0
-642 47 0
-642 45 0
643 -642 -16 0
-643 642 0
-643 16 0
644 -946 -641 0
-644 946 0
-644 641 0
645 -49 -13 0
-645 49 0
-645 13 0
646 -645 -38 0
-646 645 0
-646 38 0
647 -947 -644 0
-647 947 0
-647 644 0
648 -728 -789 0
-648 728 0
-648 789 0
649 -648 -747 0
-649 648 0
-649 747 0
650 -948 -647 0
-650 948 0
-650 647 0
651 -741 -13 0
-651 741 0
-651 13 0
652 -651 -774 0
-652 651 0
-652 774 0
653 -949 -650 0
-653 949 0
-653 650 0
654 -745 -23 0
-654 745 0
-654 23 0
655 -654 -755 0
-655 654 0
-655 755 0
656 -950 -653 0
-656 950 0
-656 653 0
657 -45 -19 0
-657 45 0
-657 19 0
658 -657 -763 0
-658 657 0
-658 763 0
659 -951 -656 0
-659 951 0
-659 656 0
660 -46 -707 0
-660 46 0
-660 707 0
661 -660 -10 0
-661 660 0
-661 10 0
662 -952 -659 0
-662 952 0
-662 659 0
663 -22 -9 0
-663 22 0
-663 9 0
664 -663 -879 0
-664 663 0
-664 879 0
665 -953 -662 0
-665 953 0
-665 662 0
666 -44 -718 0
-666 44 0
-666 718 0
667 -666 -2 0
-667 666 0
-667 2 0
668 -954 -665 0
-668 954 0
-668 665 0
669 -39 -23 0
-669 39 0
-669 23 0
670 -669 -38 0
-670 669 0
-670 38 0
671 -955 -668 0
-671 955 0
-671 668 0
672 -752 -19 0
-672 752 0
-672 19 0
673 -672 -22 0
-673 672 0
-673 22 0
674 -956 -671 0
-674 956 0
-674 671 0
675 -726 -4 0
-675 726 0
-675 4 0
676 -675 -721 0
-676 675 0
-676 721 0
677 -957 -674 0
-677 957 0
-677 674 0
678 -50 -863 0
-678 50 0
-678 863 0
679 -678 -714 0
-679 678 0
-679 714 0
680 -958 -677 0
-680 958 0
-680 677 0
681 -43 -711 0
-681 43 0
-681 711 0
682 -681 -815 0
-682 681 0
-682 815 0
683 -959 -680 0
-683 959 0
-683 680 0
684 -781 -39 0
-684 781 0
-684 39 0
685 -684 -41 0
-685 684 0
-685 41 0
686 -960 -683 0
-686 960 0
-686 683 0
687 -44 -34 0
-687 44 0
-687 34 0
688 -687 -738 0
-688 687 0
-688 738 0
689 -961 -686 0
-689 961 0
-689 686 0
690 -739 -706 0
-690 739 0
-690 706 0
691 -690 -781 0
-691 690 0
-691 781 0
692 -962 -689 0
-692 962 0
-692 689 0
693 -747 -738 0
-693 747 0
-693 738 0
694 -693 -697 0
-694 693 0
-694 697 0
695 -963 -692 0
-695 963 0
-695 692 0
-696 -2 0
696 2 0
-697 -6 0
697 6 0
-698 -54 0
698 54 0
-699 -52 0
699 52 0
-700 -8 0
700 8 0
-701 -57 0
701 57 0
-702 -4 0
702 4 0
-703 -60 0
703 60 0
-704 -63 0
704 63 0
-705 -66 0
705 66 0
-706 -15 0
706 15 0
-707 -9 0
707 9 0
-708 -69 0
708 69 0
-709 -13 0
709 13 0
-710 -72 0
710 72 0
-711 -18 0
711 18 0
-712 -75 0
712 75 0
-713 -11 0
713 11 0
-714 -17 0
714 17 0
-715 -78 0
715 78 0
-716 -7 0
716 7 0
-717 -81 0
717 81 0
-718 -5 0
718 5 0
-719 -84 0
719 84 0
-720 -1 0
720 1 0
-721 -24 0
721 24 0
-722 -87 0
722 87 0
-723 -25 0
723 25 0
-724 -26 0
724 26 0
-725 -90 0
725 90 0
-726 -23 0
726 23 0
-727 -93 0
727 93 0
-728 -28 0
728 28 0
-729 -10 0
729 10 0
-730 -96 0
730 96 0
-731 -22 0
731 22 0
-732 -99 0
732 99 0
-733 -102 0
733 102 0
-734 -105 0
734 105 0
-735 -32 0
735 32 0
-736 -108 0
736 108 0
-737 -111 0
737 111 0
-738 -35 0
738 35 0
-739 -34 0
739 34 0
-740 -114 0
740 114 0
-741 -30 0
741 30 0
-742 -117 0
742 117 0
-743 -16 0
743 16 0
-744 -120 0
744 120 0
-745 -31 0
745 31 0
-746 -123 0
746 123 0
-747 -37 0
747 37 0
-748 -126 0
748 126 0
-749 -128 0
749 128 0
-750 -14 0
750 14 0
-751 -131 0
751 131 0
-752 -39 0
752 39 0
-753 -134 0
753 134 0
-754 -137 0
754 137 0
-755 -43 0
755 43 0
-756 -140 0
756 140 0
-757 -143 0
757 143 0
-758 -146 0
758 146 0
-759 -149 0
759 149 0
-760 -40 0
760 40 0
-761 -152 0
761 152 0
-762 -155 0
762 155 0
-763 -44 0
763 44 0
-764 -158 0
764 158 0
-765 -45 0
765 45 0
-766 -161 0
766 161 0
-767 -164 0
767 164 0
-768 -167 0
768 167 0
-769 -170 0
769 170 0
-770 -21 0
770 21 0
-771 -3 0
771 3 0
-772 -173 0
772 173 0
-773 -176 0
773 176 0
-774 -20 0
774 20 0
-775 -179 0
775 179 0
-776 -182 0
776 182 0
-777 -185 0
777 185 0
-778 -188 0
778 188 0
-779 -191 0
779 191 0
-780 -194 0
780 194 0
-781 -42 0
781 42 0
-782 -197 0
782 197 0
-783 -200 0
783 200 0
-784 -41 0
784 41 0
-785 -203 0
785 203 0
-786 -206 0
786 206 0
-787 -209 0
787 209 0
-788 -212 0
788 212 0
-789 -27 0
789 27 0
-790 -215 0
790 215 0
-791 -48 0
791 48 0
-792 -218 0
792 218 0
-793 -47 0
793 47 0
-794 -221 0
794 221 0
-795 -224 0
795 224 0
-796 -227 0
796 227 0
-797 -230 0
797 230 0
-798 -233 0
798 233 0
-799 -235 0
799 235 0
-800 -238 0
800 238 0
-801 -240 0
801 240 0
-802 -243 0
802 243 0
-803 -246 0
803 246 0
-804 -249 0
804 249 0
-805 -252 0
805 252 0
-806 -255 0
806 255 0
-807 -258 0
807 258 0
-808 -261 0
808 261 0
-809 -264 0
809 264 0
-810 -267 0
810 267 0
-811 -270 0
811 270 0
-812 -273 0
812 273 0
-813 -276 0
813 276 0
-814 -279 0
814 279 0
-815 -49 0
815 49 0
-816 -282 0
816 282 0
-817 -285 0
817 285 0
-818 -288 0
818 288 0
-819 -291 0
819 291 0
-820 -294 0
820 294 0
-821 -297 0
821 297 0
-822 -300 0
822 300 0
-823 -303 0
823 303 0
-824 -306 0
824 306 0
-825 -309 0
825 309 0
-826 -50 0
826 50 0
-827 -312 0
827 312 0
-828 -315 0
828 315 0
-829 -318 0
829 318 0
-830 -321 0
830 321 0
-831 -324 0
831 324 0
-832 -38 0
832 38 0
-833 -327 0
833 327 0
-834 -330 0
834 330 0
-835 -12 0
835 12 0
-836 -333 0
836 333 0
-837 -336 0
837 336 0
-838 -339 0
838 339 0
-839 -342 0
839 342 0
-840 -345 0
840 345 0
-841 -348 0
841 348 0
-842 -351 0
842 351 0
-843 -19 0
843 19 0
-844 -354 0
844 354 0
-845 -357 0
845 357 0
-846 -359 0
846 359 0
-847 -362 0
847 362 0
-848 -365 0
848 365 0
-849 -368 0
849 368 0
-850 -371 0
850 371 0
-851 -374 0
851 374 0
-852 -377 0
852 377 0
-853 -380 0
853 380 0
-854 -382 0
854 382 0
-855 -385 0
855 385 0
-856 -388 0
856 388 0
-857 -391 0
857 391 0
-858 -394 0
858 394 0
-859 -397 0
859 397 0
-860 -400 0
860 400 0
-861 -403 0
861 403 0
-862 -406 0
862 406 0
-863 -46 0
863 46 0
-864 -409 0
864 409 0
-865 -412 0
865 412 0
-866 -415 0
866 415 0
-867 -418 0
867 418 0
-868 -421 0
868 421 0
-869 -424 0
869 424 0
-870 -427 0
870 427 0
-871 -430 0
871 430 0
-872 -433 0
872 433 0
-873 -436 0
873 436 0
-874 -439 0
874 439 0
-875 -442 0
875 442 0
-876 -445 0
876 445 0
-877 -448 0
877 448 0
-878 -451 0
878 451 0
-879 -36 0
879 36 0
-880 -454 0
880 454 0
-881 -456 0
881 456 0
-882 -29 0
882 29 0
-883 -459 0
883 459 0
-884 -462 0
884 462 0
-885 -465 0
885 465 0
-886 -468 0
886 468 0
-887 -471 0
887 471 0
-888 -474 0
888 474 0
-889 -477 0
889 477 0
-890 -33 0
890 33 0
-891 -480 0
891 480 0
-892 -483 0
892 483 0
-893 -486 0
893 486 0
-894 -489 0
894 489 0
-895 -492 0
895 492 0
-896 -495 0
896 495 0
-897 -498 0
897 498 0
-898 -501 0
898 501 0
-899 -504 0
899 504 0
-900 -507 0
900 507 0
-901 -510 0
901 510 0
-902 -513 0
902 513 0
-903 -516 0
903 516 0
-904 -519 0
904 519 0
-905 -522 0
905 522 0
-906 -525 0
906 525 0
-907 -528 0
907 528 0
-908 -531 0
908 531 0
-909 -534 0
909 534 0
-910 -537 0
910 537 0
-911 -540 0
911 540 0
-912 -543 0
912 543 0
-913 -546 0
913 546 0
-914 -549 0
914 549 0
-915 -552 0
915 552 0
-916 -555 0
916 555 0
-917 -558 0
917 558 0
-918 -561 0
918 561 0
-919 -564 0
919 564 0
-920 -567 0
920 567 0
-921 -569 0
921 569 0
-922 -572 0
922 572 0
-923 -575 0
923 575 0
-924 -578 0
924 578 0
-925 -581 0
925 581 0
-926 -584 0
926 584 0
-927 -587 0
927 587 0
-928 -590 0
928 590 0
-929 -593 0
929 593 0
-930 -596 0
930 596 0
-931 -599 0
931 599 0
-932 -602 0
932 602 0
-933 -605 0
933 605 0
-934 -608 0
934 608 0
-935 -611 0
935 611 0
-936 -614 0
936 614 0
-937 -617 0
937 617 0
-938 -620 0
938 620 0
-939 -623 0
939 623 0
-940 -626 0
940 626 0
-941 -629 0
941 629 0
-942 -631 0
942 631 0
-943 -634 0
943 634 0
-944 -637 0
944 637 0
-945 -640 0
945 640 0
-946 -643 0
946 643 0
-947 -646 0
947 646 0
-948 -649 0
948 649 0
-949 -652 0
949 652 0
-950 -655 0
950 655 0
-951 -658 0
951 658 0
-952 -661 0
952 661 0
-953 -664 0
953 664 0
-954 -667 0
954 667 0
-955 -670 0
955 670 0
-956 -673 0
956 673 0
-957 -676 0
957 676 0
-958 -679 0
958 679 0
-959 -682 0
959 682 0
-960 -685 0
960 685 0
-961 -688 0
961 688 0
-962 -691 0
962 691 0
-963 -694 0
963 694 0
695 0
